WARNING: for repeatability, setting FPU to use double precision
============================[ Problem Statistics ]=============================
|                                                                             |
|  Number of variables:           100                                         |
|  Number of clauses:             449                                         |
|  Parse time:                   0.00 s                                       |
|  Eliminated clauses:           0.00 Mb                                      |
|  Simplification time:          0.00 s                                       |
|                                                                             |
============================[ Search Statistics ]==============================
| Conflicts |          ORIGINAL         |          LEARNT          | Progress |
|           |    Vars  Clauses Literals |    Limit  Clauses Lit/Cl |          |
===============================================================================
|       100 |      99      448     1353 |      164      100      7 |  0.010 % |
|       250 |      99      448     1353 |      180      165      6 |  0.020 % |
===============================================================================
restarts              : 4
conflicts             : 406            (126994 /sec)
decisions             : 501            (0.00 % random) (156709 /sec)
propagations          : 10092          (3156709 /sec)
conflict literals     : 2259           (22.45 % deleted)
Memory used           : 13.00 MB
CPU time              : 0.003197 s

SATISFIABLE
